/* Objective function */
max: +300 X11 +300 X21 +300 X31 +360 X12 +360 X22 +360 X32 +420 X13 +420 X23 +420 X33;

/* Constraints */
z1: +X11 +X21 +X31 <= 750;
z2: +X12 +X22 +X32 <= 1200;
z3: +X13 +X23 +X33 <= 900;
z4: +X11 +X12 +X13 <= 750;
z5: +X21 +X22 +X23 <= 900;
z6: +X31 +X32 +X33 <= 450;
z7: +12 X11 +15 X12 +20 X13 <= 13000;
z8: +12 X21 +15 X22 +20 X23 <= 12000;
z9: +12 X31 +15 X32 +20 X33 <= 5000;
